loop__main__1406:
(set-info :source |printed by MathSAT|)
(declare-fun |main::tmp_var_1_uint| () (_ BitVec 32))
(declare-fun |main::local_2c| () (_ BitVec 32))
(declare-fun |main::q| () (_ BitVec 32))
(declare-fun |main::A| () (_ BitVec 32))
(declare-fun |main::p| () (_ BitVec 32))
(declare-fun |main::tmp_var_2_uint| () (_ BitVec 32))
(declare-fun counter () (_ BitVec 32))
(assert (let ((.def_510 (bvult |main::tmp_var_2_uint| |main::local_2c|)))(let ((.def_622 (not .def_510)))(let ((.def_505 (= |main::tmp_var_1_uint| (_ bv2 32))))(let ((.def_913 (or .def_505 .def_622)))(let ((.def_507 (bvshl |main::local_2c| (_ bv1 32))))(let ((.def_508 (= |main::q| .def_507)))(let ((.def_911 (and .def_508 .def_622)))(let ((.def_569 (not .def_505)))(let ((.def_912 (or .def_569 .def_911)))(let ((.def_914 (and .def_912 .def_913)))(let ((.def_503 (= counter (_ bv0 32))))(let ((.def_916 (or .def_503 .def_914)))(let ((.def_512 (= counter (_ bv1 32))))(let ((.def_566 (not .def_512)))(let ((.def_688 (and .def_566 .def_622)))(let ((.def_798 (or .def_505 .def_688)))(let ((.def_796 (and .def_508 .def_688)))(let ((.def_797 (or .def_569 .def_796)))(let ((.def_799 (and .def_797 .def_798)))(let ((.def_626 (not .def_503)))(let ((.def_915 (or .def_626 .def_799)))(let ((.def_917 (and .def_915 .def_916)))(let ((.def_500 (= |main::local_2c| |main::q|)))(let ((.def_628 (not .def_500)))(let ((.def_918 (and .def_628 .def_917)))(let ((.def_285 (= |main::tmp_var_1_uint| (_ bv1 32))))(let ((.def_1234 (or .def_285 .def_918)))(let ((.def_567 (not .def_508)))(let ((.def_568 (and .def_566 .def_567)))(let ((.def_570 (and .def_568 .def_569)))(let ((.def_571 (and .def_503 .def_570)))(let ((.def_572 (and .def_500 .def_571)))(let ((.def_312 (not .def_285)))(let ((.def_1233 (or .def_312 .def_572)))(let ((.def_1235 (and .def_1233 .def_1234)))(let ((.def_167 (= |main::p| |main::tmp_var_2_uint|)))(let ((.def_1236 (and .def_167 .def_1235)))(let ((.def_163 (= |main::A| (_ bv0 32))))(let ((.def_1237 (and .def_163 .def_1236)))(let ((.def_89 (bvmul |main::tmp_var_1_uint| |main::local_2c|)))(let ((.def_91 (= .def_89 |main::q|)))(let ((.def_1238 (and .def_91 .def_1237))).def_1238)))))))))))))))))))))))))))))))))))))))))))
loop__main__1433:
(set-info :source |printed by MathSAT|)
(declare-fun |main::tmp_var_1_uint| () (_ BitVec 32))
(declare-fun |main::local_2c| () (_ BitVec 32))
(declare-fun |main::q| () (_ BitVec 32))
(declare-fun |main::A| () (_ BitVec 32))
(declare-fun |main::p| () (_ BitVec 32))
(declare-fun |main::tmp_var_2_uint| () (_ BitVec 32))
(assert (let ((.def_507 (bvshl |main::local_2c| (_ bv1 32))))(let ((.def_516 (bvlshr .def_507 (_ bv1 32))))(let ((.def_521 (bvult |main::tmp_var_2_uint| .def_516)))(let ((.def_1120 (not .def_521)))(let ((.def_525 (= |main::A| (_ bv1 32))))(let ((.def_1117 (not .def_525)))(let ((.def_527 (bvmul |main::local_2c| |main::A|)))(let ((.def_528 (bvadd |main::p| .def_527)))(let ((.def_529 (= |main::tmp_var_2_uint| .def_528)))(let ((.def_1118 (and .def_529 .def_1117)))(let ((.def_523 (bvult |main::tmp_var_2_uint| .def_507)))(let ((.def_1119 (and .def_523 .def_1118)))(let ((.def_1184 (and .def_1119 .def_1120)))(let ((.def_517 (bvneg .def_516)))(let ((.def_518 (bvadd |main::tmp_var_2_uint| .def_517)))(let ((.def_519 (= |main::p| .def_518)))(let ((.def_1127 (not .def_519)))(let ((.def_1185 (and .def_1127 .def_1184)))(let ((.def_514 (bvult |main::tmp_var_2_uint| |main::q|)))(let ((.def_1186 (and .def_514 .def_1185)))(let ((.def_510 (bvult |main::tmp_var_2_uint| |main::local_2c|)))(let ((.def_622 (not .def_510)))(let ((.def_1187 (and .def_622 .def_1186)))(let ((.def_508 (= |main::q| .def_507)))(let ((.def_1188 (and .def_508 .def_1187)))(let ((.def_505 (= |main::tmp_var_1_uint| (_ bv2 32))))(let ((.def_1189 (and .def_505 .def_1188)))(let ((.def_285 (= |main::tmp_var_1_uint| (_ bv1 32))))(let ((.def_1240 (or .def_285 .def_1189)))(let ((.def_1122 (or .def_521 .def_1118)))(let ((.def_1121 (or .def_1119 .def_1120)))(let ((.def_1123 (and .def_1121 .def_1122)))(let ((.def_1129 (or .def_519 .def_1123)))(let ((.def_1124 (not .def_523)))(let ((.def_1125 (and .def_1118 .def_1124)))(let ((.def_1126 (and .def_1120 .def_1125)))(let ((.def_1128 (or .def_1126 .def_1127)))(let ((.def_1130 (and .def_1128 .def_1129)))(let ((.def_1131 (and .def_514 .def_1130)))(let ((.def_1132 (and .def_510 .def_1131)))(let ((.def_567 (not .def_508)))(let ((.def_1133 (and .def_567 .def_1132)))(let ((.def_569 (not .def_505)))(let ((.def_1134 (and .def_569 .def_1133)))(let ((.def_312 (not .def_285)))(let ((.def_1239 (or .def_312 .def_1134)))(let ((.def_1241 (and .def_1239 .def_1240)))(let ((.def_167 (= |main::p| |main::tmp_var_2_uint|)))(let ((.def_1242 (and .def_167 .def_1241)))(let ((.def_163 (= |main::A| (_ bv0 32))))(let ((.def_1243 (and .def_163 .def_1242)))(let ((.def_89 (bvmul |main::tmp_var_1_uint| |main::local_2c|)))(let ((.def_91 (= .def_89 |main::q|)))(let ((.def_1244 (and .def_91 .def_1243))).def_1244)))))))))))))))))))))))))))))))))))))))))))))))))))))))
